NPROCS=0
This instance is clustered!
Gurobi Optimizer version 9.0.0 build v9.0.0rc2 (linux64)
Optimize a model with 16 rows, 65 columns and 128 nonzeros
Model fingerprint: 0xdd14c09a
Variable types: 1 continuous, 64 integer (64 binary)
Coefficient statistics:
  Matrix range     [1e+00, 1e+00]
  Objective range  [9e-01, 3e+01]
  Bounds range     [1e+00, 1e+00]
  RHS range        [1e+00, 1e+00]
Presolve removed 2 rows and 21 columns
Presolve time: 0.00s
Presolved: 14 rows, 44 columns, 86 nonzeros
Variable types: 1 continuous, 43 integer (43 binary)

Root relaxation: objective 6.294765e+01, 11 iterations, 0.00 seconds

    Nodes    |    Current Node    |     Objective Bounds      |     Work
 Expl Unexpl |  Obj  Depth IntInf | Incumbent    BestBd   Gap | It/Node Time

     0     0   69.06526    0   10          -   69.06526      -     -    0s
     0     0   70.97006    0   12          -   70.97006      -     -    0s
     0     0   73.78799    0   15          -   73.78799      -     -    0s
H    0     0                      90.8680128   73.78799  18.8%     -    0s
     0     0   73.80705    0   14   90.86801   73.80705  18.8%     -    0s
H    0     0                      81.0284220   73.80705  8.91%     -    0s
     0     0   75.55026    0   14   81.02842   75.55026  6.76%     -    0s
     0     0   75.55026    0    8   81.02842   75.55026  6.76%     -    0s
     0     0   75.55026    0   12   81.02842   75.55026  6.76%     -    0s
     0     0   75.55026    0   15   81.02842   75.55026  6.76%     -    0s
H    0     0                      78.8256203   75.55026  4.16%     -    0s
     0     0   75.67178    0   15   78.82562   75.67178  4.00%     -    0s
     0     0   75.67234    0   15   78.82562   75.67234  4.00%     -    0s
     0     0   75.67580    0   15   78.82562   75.67580  4.00%     -    0s
     0     0   75.68761    0   15   78.82562   75.68761  3.98%     -    0s
     0     0   75.73956    0   15   78.82562   75.73956  3.92%     -    0s
     0     0   76.88957    0    4   78.82562   76.88957  2.46%     -    0s
     0     0   76.88957    0    4   78.82562   76.88957  2.46%     -    0s
H    0     0                      78.1947796   76.88957  1.67%     -    0s
     0     0     cutoff    0        78.19478   78.19478  0.00%     -    0s

Explored 1 nodes (64 simplex iterations) in 0.05 seconds
Thread count was 12 (of 12 available processors)

Solution count 4: 78.1948 78.8256 81.0284 90.868 

Optimal solution found (tolerance 1.00e-04)
Best objective 7.819477956292e+01, best bound 7.819477956292e+01, gap 0.0000%

User-callback calls 151, time in user-callback 0.00 sec
/projects/academic/josewalt/caigao/RRARP_BD/BendersDecomp/ret/model_outs/n_6_m_10_algo_3.out
 =====>>>>> Solution is written to file in <../ret/model_outs> !!!
===>> All Done!
